proyfinal/src/viki/013/experimentInOfficeAgust.take6.output/dec9552d-8383-4e63-aec7-2f75bf95ed0d.als.dat
{'cnf.clauses': '118081',
 'cnf.totvars': '69608',
 'conflict literals': '62',
 'conflicts': '20',
 'decisions': '5289',
 'memused.mb': '16.31',
 'outcome': 'UNSAT',
 'propagations': '28603',
 'restarts': '1',
 'solver.msecs': 31,
 'task.msecs': 157}
