proyfinal/src/viki/013/experimentInOfficeAgust.take6.output/dec9552d-8383-4e63-aec7-2f75bf95ed0d.als.out
Reading from standard input... Use '--help' for help.
============================[ Problem Statistics ]=============================
|                                                                             |
|  Number of variables:         69608                                         |
|  Number of clauses:          118081                                         |
|  Parse time:                   0.02 s                                       |
|                                                                             |
============================[ Search Statistics ]==============================
| Conflicts |          ORIGINAL         |          LEARNT          | Progress |
|           |    Vars  Clauses Literals |    Limit  Clauses Lit/Cl |          |
===============================================================================
===============================================================================
restarts              : 1
conflicts             : 20             (627 /sec)
decisions             : 5289           (0.00 % random) (165794 /sec)
propagations          : 28603          (896618 /sec)
conflict literals     : 62             (0.00 % deleted)
Memory used           : 16.31 MB
CPU time              : 0.031901 s

UNSATISFIABLE
